 vasp.6.4.2 20Jul23 (build Oct 18 2023 12:49:41) complex
 executed on             LinuxGNU date 2025.04.11  10:54:30

 INCAR:
   SYSTEM = Al
   ISMEAR = -5
   ENCUT = 400
   LORBIT = 11
   NSIM = 1

 POTCAR:    PAW_PBE Al 04Jan2001
 POTCAR:    PAW_PBE Al 04Jan2001
   VRHFIN =Al: s2p1

   TITEL  = PAW_PBE Al 04Jan2001
   POMASS =   26.981; ZVAL   =    3.000    mass and valenz
   ENMAX  =  240.300; ENMIN  =  180.225 eV

  PAW_PBE Al 04Jan2001                  :

 POSCAR: Al
  positions in cartesian coordinates
 exchange correlation table for  LEXCH =        8
   RHO(1)=    0.500       N(1)  =     2000
   RHO(2)=  100.500       N(2)  =     4000

 ion  position               nearest neighbor table
   1  0.000  0.000  0.000-

  LATTYP: Found a face centered cubic cell.
 ALAT       =     4.0392551645

  Lattice vectors:

 A1 = (   2.8561847177,   0.0000000000,   0.0000000000)
 A2 = (   1.4280923589,   2.4735285235,   0.0000000000)
 A3 = (   1.4280923589,   0.8245095078,   2.3320650565)

Analysis of symmetry for initial positions (statically):
 Subroutine PRICEL returns:
 Original cell was already a primitive cell.

 Routine SETGRP: Setting up the symmetry group for a
 face centered cubic supercell.

 Subroutine GETGRP returns: Found 48 space group operations
 (whereof 48 operations were pure point group operations)
 out of a pool of 48 trial point group operations.

The static configuration has the point symmetry O_h .

Analysis of symmetry for dynamics (positions and initial velocities):
 Subroutine PRICEL returns:
 Original cell was already a primitive cell.

 Routine SETGRP: Setting up the symmetry group for a
 face centered cubic supercell.

 Subroutine GETGRP returns: Found 48 space group operations
 (whereof 48 operations were pure point group operations)
 out of a pool of 48 trial point group operations.

The dynamic configuration has the point symmetry O_h .

 Subroutine INISYM returns: Found 48 space group operations
 (whereof 48 operations are pure point group operations),
 and found     1 'primitive' translations

                                     Primitive cell

  volume of cell :      16.4757

  direct lattice vectors                    reciprocal lattice vectors
     2.856184718  0.000000000  0.000000000     0.350117411 -0.202140382 -0.142934835
     1.428092359  2.473528523  0.000000000     0.000000000  0.404280763 -0.142934835
     1.428092359  0.824509508  2.332065057     0.000000000  0.000000000  0.428804504

  length of vectors
     2.856184718  2.856184718  2.856184718     0.428804504  0.428804504  0.428804504

  position of ions in fractional coordinates (direct lattice)
     0.000000000  0.000000000  0.000000000

  ion indices of the primitive-cell ions
   primitive index   ion index
                 1           1

 KPOINTS: Al             # System label

Automatic generation of k-mesh.
 Grid dimensions read from file:
 generate k-points for:   25   25   25

 Generating k-lattice:

  Cartesian coordinates                     Fractional coordinates (reciprocal lattice)
     0.014004696 -0.008085615 -0.005717393     0.040000000  0.000000000  0.000000000
     0.000000000  0.016171231 -0.005717393     0.000000000  0.040000000 -0.000000000
     0.000000000  0.000000000  0.017152180     0.000000000  0.000000000  0.040000000

  Length of vectors
     0.017152180  0.017152180  0.017152180

  Shift w.r.t. Gamma in fractional coordinates (k-lattice)
     0.000000000  0.000000000  0.000000000

 TETIRR: Found   2119 inequivalent tetrahedra from    93750

 Subroutine IBZKPT returns following result:

 Found    455 irreducible k-points:

 Following reciprocal coordinates:
            Coordinates               Weight
  0.000000  0.000000  0.000000      1.000000
  0.040000  0.000000  0.000000      8.000000
  0.080000  0.000000  0.000000      8.000000
  0.120000  0.000000  0.000000      8.000000
  0.160000  0.000000  0.000000      8.000000
  0.200000  0.000000  0.000000      8.000000
  0.240000  0.000000  0.000000      8.000000
  0.280000  0.000000  0.000000      8.000000
  0.320000  0.000000  0.000000      8.000000
  0.360000  0.000000  0.000000      8.000000
  0.400000  0.000000  0.000000      8.000000
  0.440000  0.000000  0.000000      8.000000
  0.480000  0.000000  0.000000      8.000000
  0.040000  0.040000  0.000000      6.000000
  0.080000  0.040000  0.000000     24.000000
  0.120000  0.040000  0.000000     24.000000
  0.160000  0.040000  0.000000     24.000000
  0.200000  0.040000  0.000000     24.000000
  0.240000  0.040000  0.000000     24.000000
  0.280000  0.040000  0.000000     24.000000
  0.320000  0.040000  0.000000     24.000000
  0.360000  0.040000  0.000000     24.000000
  0.400000  0.040000  0.000000     24.000000
  0.440000  0.040000  0.000000     24.000000
  0.480000  0.040000  0.000000     24.000000
 -0.480000  0.040000  0.000000     24.000000
 -0.440000  0.040000  0.000000     24.000000
 -0.400000  0.040000  0.000000     24.000000
 -0.360000  0.040000  0.000000     24.000000
 -0.320000  0.040000  0.000000     24.000000
 -0.280000  0.040000  0.000000     24.000000
 -0.240000  0.040000  0.000000     24.000000
 -0.200000  0.040000  0.000000     24.000000
 -0.160000  0.040000  0.000000     24.000000
 -0.120000  0.040000  0.000000     24.000000
 -0.080000  0.040000  0.000000     24.000000
 -0.040000  0.040000  0.000000     12.000000
  0.080000  0.080000  0.000000      6.000000
  0.120000  0.080000  0.000000     24.000000
  0.160000  0.080000  0.000000     24.000000
  0.200000  0.080000  0.000000     24.000000
  0.240000  0.080000  0.000000     24.000000
  0.280000  0.080000  0.000000     24.000000
  0.320000  0.080000  0.000000     24.000000
  0.360000  0.080000  0.000000     24.000000
  0.400000  0.080000  0.000000     24.000000
  0.440000  0.080000  0.000000     24.000000
  0.480000  0.080000  0.000000     24.000000
 -0.480000  0.080000  0.000000     24.000000
 -0.440000  0.080000  0.000000     24.000000
 -0.400000  0.080000  0.000000     24.000000
 -0.360000  0.080000  0.000000     24.000000
 -0.320000  0.080000  0.000000     24.000000
 -0.280000  0.080000  0.000000     24.000000
 -0.240000  0.080000  0.000000     24.000000
 -0.200000  0.080000  0.000000     24.000000
 -0.160000  0.080000  0.000000     24.000000
 -0.120000  0.080000  0.000000     24.000000
 -0.080000  0.080000  0.000000     12.000000
  0.120000  0.120000  0.000000      6.000000
[...]
 -0.360000  0.440000  0.160000     48.000000
 -0.320000  0.440000  0.160000     48.000000
 -0.280000  0.440000  0.160000     24.000000
 -0.360000  0.480000  0.160000     24.000000
 -0.320000  0.480000  0.160000     24.000000
 -0.400000  0.400000  0.200000     24.000000
 -0.360000  0.400000  0.200000     48.000000
 -0.320000  0.400000  0.200000     48.000000
 -0.360000  0.440000  0.200000     24.000000
 -0.320000  0.440000  0.200000     48.000000
 -0.280000  0.440000  0.200000     48.000000
 -0.240000  0.440000  0.200000     24.000000
 -0.320000  0.480000  0.200000     24.000000
 -0.280000  0.480000  0.200000     24.000000
 -0.280000  0.480000  0.240000     24.000000

 Following cartesian coordinates:
            Coordinates               Weight
  0.000000  0.000000  0.000000      1.000000
  0.013969 -0.008065 -0.005703      8.000000
  0.027939 -0.016130 -0.011406      8.000000
  0.041908 -0.024196 -0.017109      8.000000
  0.055878 -0.032261 -0.022812      8.000000
  0.069847 -0.040326 -0.028515      8.000000
  0.083816 -0.048391 -0.034218      8.000000
  0.097786 -0.056457 -0.039921      8.000000
  0.111755 -0.064522 -0.045624      8.000000
  0.125725 -0.072587 -0.051327      8.000000
  0.139694 -0.080652 -0.057030      8.000000
  0.153663 -0.088718 -0.062733      8.000000
  0.167633 -0.096783 -0.068436      8.000000
  0.013969  0.008065 -0.011406      6.000000
  0.027939  0.000000 -0.017109     24.000000
  0.041908 -0.008065 -0.022812     24.000000
  0.055878 -0.016130 -0.028515     24.000000
  0.069847 -0.024196 -0.034218     24.000000
  0.083816 -0.032261 -0.039921     24.000000
  0.097786 -0.040326 -0.045624     24.000000
  0.111755 -0.048391 -0.051327     24.000000
  0.125725 -0.056457 -0.057030     24.000000
  0.139694 -0.064522 -0.062733     24.000000
  0.153663 -0.072587 -0.068436     24.000000
  0.167633 -0.080652 -0.074139     24.000000
 -0.167633  0.112913  0.062733     24.000000
 -0.153663  0.104848  0.057030     24.000000
 -0.139694  0.096783  0.051327     24.000000
 -0.125725  0.088718  0.045624     24.000000
 -0.111755  0.080652  0.039921     24.000000
 -0.097786  0.072587  0.034218     24.000000
 -0.083816  0.064522  0.028515     24.000000
 -0.069847  0.056457  0.022812     24.000000
 -0.055878  0.048391  0.017109     24.000000
 -0.041908  0.040326  0.011406     24.000000
 -0.027939  0.032261  0.005703     24.000000
 -0.013969  0.024196  0.000000     12.000000
  0.027939  0.016130 -0.022812      6.000000
  0.041908  0.008065 -0.028515     24.000000
  0.055878  0.000000 -0.034218     24.000000
  0.069847 -0.008065 -0.039921     24.000000
  0.083816 -0.016130 -0.045624     24.000000
  0.097786 -0.024196 -0.051327     24.000000
  0.111755 -0.032261 -0.057030     24.000000
  0.125725 -0.040326 -0.062733     24.000000
  0.139694 -0.048391 -0.068436     24.000000
  0.153663 -0.056457 -0.074139     24.000000
  0.167633 -0.064522 -0.079842     24.000000
 -0.167633  0.129044  0.057030     24.000000
 -0.153663  0.120979  0.051327     24.000000
 -0.139694  0.112913  0.045624     24.000000
 -0.125725  0.104848  0.039921     24.000000
 -0.111755  0.096783  0.034218     24.000000
 -0.097786  0.088718  0.028515     24.000000
 -0.083816  0.080652  0.022812     24.000000
 -0.069847  0.072587  0.017109     24.000000
 -0.055878  0.064522  0.011406     24.000000
 -0.041908  0.056457  0.005703     24.000000
 -0.027939  0.048391  0.000000     12.000000
  0.041908  0.024196 -0.034218      6.000000
[...]
 -0.125725  0.250022  0.057030     48.000000
 -0.111755  0.241957  0.051327     48.000000
 -0.097786  0.233892  0.045624     24.000000
 -0.125725  0.266153  0.051327     24.000000
 -0.111755  0.258088  0.045624     24.000000
 -0.139694  0.241957  0.085545     24.000000
 -0.125725  0.233892  0.079842     48.000000
 -0.111755  0.225827  0.074139     48.000000
 -0.125725  0.250022  0.074139     24.000000
 -0.111755  0.241957  0.068436     48.000000
 -0.097786  0.233892  0.062733     48.000000
 -0.083816  0.225827  0.057030     24.000000
 -0.111755  0.258088  0.062733     24.000000
 -0.097786  0.250022  0.057030     24.000000
 -0.097786  0.250022  0.074139     24.000000

 Subroutine IBZKPT_HF returns following result:

 Found  15625 k-points in 1st BZ
 the following  15625 k-points will be used (e.g. in the exchange kernel)
 Following reciprocal coordinates:   # in IRBZ
  0.000000  0.000000  0.000000    0.00006400   1 t-inv F
  0.040000  0.000000  0.000000    0.00006400   2 t-inv F
  0.080000  0.000000  0.000000    0.00006400   3 t-inv F
  0.120000  0.000000  0.000000    0.00006400   4 t-inv F
  0.160000  0.000000  0.000000    0.00006400   5 t-inv F
  0.200000  0.000000  0.000000    0.00006400   6 t-inv F
  0.240000  0.000000  0.000000    0.00006400   7 t-inv F
  0.280000  0.000000  0.000000    0.00006400   8 t-inv F
[...]
  -0.12572466  0.23389199  0.07984181       0.003
  -0.11175526  0.22582674  0.07413882       0.003
  -0.12572466  0.25002247  0.07413882       0.002
  -0.11175526  0.24195723  0.06843584       0.003
  -0.09778585  0.23389199  0.06273285       0.003
  -0.08381644  0.22582674  0.05702987       0.002
  -0.11175526  0.25808771  0.06273285       0.002
  -0.09778585  0.25002247  0.05702987       0.002
  -0.09778585  0.25002247  0.07413882       0.002

 k-points in reciprocal lattice and weights: Al             # System label
   0.00000000  0.00000000  0.00000000       0.000
   0.04000000  0.00000000  0.00000000       0.001
   0.08000000  0.00000000  0.00000000       0.001
   0.12000000  0.00000000  0.00000000       0.001
   0.16000000  0.00000000  0.00000000       0.001
   0.20000000  0.00000000  0.00000000       0.001
   0.24000000  0.00000000  0.00000000       0.001
   0.28000000  0.00000000  0.00000000       0.001
   0.32000000  0.00000000  0.00000000       0.001
   0.36000000  0.00000000  0.00000000       0.001
   0.40000000  0.00000000  0.00000000       0.001
   0.44000000  0.00000000  0.00000000       0.001
   0.48000000  0.00000000  0.00000000       0.001
   0.04000000  0.04000000  0.00000000       0.000
   0.08000000  0.04000000  0.00000000       0.002
   0.12000000  0.04000000  0.00000000       0.002
   0.16000000  0.04000000  0.00000000       0.002
   0.20000000  0.04000000  0.00000000       0.002
   0.24000000  0.04000000  0.00000000       0.002
   0.28000000  0.04000000  0.00000000       0.002
   0.32000000  0.04000000  0.00000000       0.002
   0.36000000  0.04000000  0.00000000       0.002
   0.40000000  0.04000000  0.00000000       0.002
   0.44000000  0.04000000  0.00000000       0.002
   0.48000000  0.04000000  0.00000000       0.002
  -0.48000000  0.04000000  0.00000000       0.002
  -0.44000000  0.04000000  0.00000000       0.002
  -0.40000000  0.04000000  0.00000000       0.002
  -0.36000000  0.04000000  0.00000000       0.002
  -0.32000000  0.04000000  0.00000000       0.002
  -0.28000000  0.04000000  0.00000000       0.002
  -0.24000000  0.04000000  0.00000000       0.002
  -0.20000000  0.04000000  0.00000000       0.002
  -0.16000000  0.04000000  0.00000000       0.002
  -0.12000000  0.04000000  0.00000000       0.002
  -0.08000000  0.04000000  0.00000000       0.002
  -0.04000000  0.04000000  0.00000000       0.001
   0.08000000  0.08000000  0.00000000       0.000
   0.12000000  0.08000000  0.00000000       0.002
   0.16000000  0.08000000  0.00000000       0.002
   0.20000000  0.08000000  0.00000000       0.002
   0.24000000  0.08000000  0.00000000       0.002
   0.28000000  0.08000000  0.00000000       0.002
   0.32000000  0.08000000  0.00000000       0.002
   0.36000000  0.08000000  0.00000000       0.002
   0.40000000  0.08000000  0.00000000       0.002
   0.44000000  0.08000000  0.00000000       0.002
   0.48000000  0.08000000  0.00000000       0.002
  -0.48000000  0.08000000  0.00000000       0.002
  -0.44000000  0.08000000  0.00000000       0.002
  -0.40000000  0.08000000  0.00000000       0.002
  -0.36000000  0.08000000  0.00000000       0.002
  -0.32000000  0.08000000  0.00000000       0.002
  -0.28000000  0.08000000  0.00000000       0.002
  -0.24000000  0.08000000  0.00000000       0.002
  -0.20000000  0.08000000  0.00000000       0.002
  -0.16000000  0.08000000  0.00000000       0.002
  -0.12000000  0.08000000  0.00000000       0.002
  -0.08000000  0.08000000  0.00000000       0.001
   0.12000000  0.12000000  0.00000000       0.000
[...]
  -0.36000000  0.44000000  0.16000000       0.003
  -0.32000000  0.44000000  0.16000000       0.003
  -0.28000000  0.44000000  0.16000000       0.002
  -0.36000000  0.48000000  0.16000000       0.002
  -0.32000000  0.48000000  0.16000000       0.002
  -0.40000000  0.40000000  0.20000000       0.002
  -0.36000000  0.40000000  0.20000000       0.003
  -0.32000000  0.40000000  0.20000000       0.003
  -0.36000000  0.44000000  0.20000000       0.002
  -0.32000000  0.44000000  0.20000000       0.003
  -0.28000000  0.44000000  0.20000000       0.003
  -0.24000000  0.44000000  0.20000000       0.002
  -0.32000000  0.48000000  0.20000000       0.002
  -0.28000000  0.48000000  0.20000000       0.002
  -0.28000000  0.48000000  0.24000000       0.002

 position of ions in fractional coordinates (direct lattice)
   0.00000000  0.00000000  0.00000000

 position of ions in cartesian coordinates  (Angst):
   0.00000000  0.00000000  0.00000000

 k-point   1 :   0.0000 0.0000 0.0000  plane waves:     307
 k-point   2 :   0.0400 0.0000 0.0000  plane waves:     301
 k-point   3 :   0.0800 0.0000 0.0000  plane waves:     307
 k-point   4 :   0.1200 0.0000 0.0000  plane waves:     307
 k-point   5 :   0.1600 0.0000 0.0000  plane waves:     304
 k-point   6 :   0.2000 0.0000 0.0000  plane waves:     308
 k-point   7 :   0.2400 0.0000 0.0000  plane waves:     302
 k-point   8 :   0.2800 0.0000 0.0000  plane waves:     302
 k-point   9 :   0.3200 0.0000 0.0000  plane waves:     302
 k-point  10 :   0.3600 0.0000 0.0000  plane waves:     299
 k-point  11 :   0.4000 0.0000 0.0000  plane waves:     296
 k-point  12 :   0.4400 0.0000 0.0000  plane waves:     290
 k-point  13 :   0.4800 0.0000 0.0000  plane waves:     302
 k-point  14 :   0.0400 0.0400 0.0000  plane waves:     299
 k-point  15 :   0.0800 0.0400 0.0000  plane waves:     305
 k-point  16 :   0.1200 0.0400 0.0000  plane waves:     305
 k-point  17 :   0.1600 0.0400 0.0000  plane waves:     305
 k-point  18 :   0.2000 0.0400 0.0000  plane waves:     303
 k-point  19 :   0.2400 0.0400 0.0000  plane waves:     302
 k-point  20 :   0.2800 0.0400 0.0000  plane waves:     300
 k-point  21 :   0.3200 0.0400 0.0000  plane waves:     298
 k-point  22 :   0.3600 0.0400 0.0000  plane waves:     296
 k-point  23 :   0.4000 0.0400 0.0000  plane waves:     300
 k-point  24 :   0.4400 0.0400 0.0000  plane waves:     294
 k-point  25 :   0.4800 0.0400 0.0000  plane waves:     296
 k-point  26 :  -0.4800 0.0400 0.0000  plane waves:     300
 k-point  27 :  -0.4400 0.0400 0.0000  plane waves:     294
 k-point  28 :  -0.4000 0.0400 0.0000  plane waves:     297
 k-point  29 :  -0.3600 0.0400 0.0000  plane waves:     295
 k-point  30 :  -0.3200 0.0400 0.0000  plane waves:     299
 k-point  31 :  -0.2800 0.0400 0.0000  plane waves:     301
 k-point  32 :  -0.2400 0.0400 0.0000  plane waves:     303
 k-point  33 :  -0.2000 0.0400 0.0000  plane waves:     305
 k-point  34 :  -0.1600 0.0400 0.0000  plane waves:     308
 k-point  35 :  -0.1200 0.0400 0.0000  plane waves:     308
 k-point  36 :  -0.0800 0.0400 0.0000  plane waves:     306
 k-point  37 :  -0.0400 0.0400 0.0000  plane waves:     311
 k-point  38 :   0.0800 0.0800 0.0000  plane waves:     307
 k-point  39 :   0.1200 0.0800 0.0000  plane waves:     303
 k-point  40 :   0.1600 0.0800 0.0000  plane waves:     305
 k-point  41 :   0.2000 0.0800 0.0000  plane waves:     305
 k-point  42 :   0.2400 0.0800 0.0000  plane waves:     304
 k-point  43 :   0.2800 0.0800 0.0000  plane waves:     298
 k-point  44 :   0.3200 0.0800 0.0000  plane waves:     298
 k-point  45 :   0.3600 0.0800 0.0000  plane waves:     298
 k-point  46 :   0.4000 0.0800 0.0000  plane waves:     297
 k-point  47 :   0.4400 0.0800 0.0000  plane waves:     295
 k-point  48 :   0.4800 0.0800 0.0000  plane waves:     299
 k-point  49 :  -0.4800 0.0800 0.0000  plane waves:     294
 k-point  50 :  -0.4400 0.0800 0.0000  plane waves:     294
 k-point  51 :  -0.4000 0.0800 0.0000  plane waves:     298
 k-point  52 :  -0.3600 0.0800 0.0000  plane waves:     298
 k-point  53 :  -0.3200 0.0800 0.0000  plane waves:     297
 k-point  54 :  -0.2800 0.0800 0.0000  plane waves:     299
 k-point  55 :  -0.2400 0.0800 0.0000  plane waves:     299
 k-point  56 :  -0.2000 0.0800 0.0000  plane waves:     304
 k-point  57 :  -0.1600 0.0800 0.0000  plane waves:     305
 k-point  58 :  -0.1200 0.0800 0.0000  plane waves:     305
 k-point  59 :  -0.0800 0.0800 0.0000  plane waves:     307
 k-point  60 :   0.1200 0.1200 0.0000  plane waves:     307
[...]
 k-point 441 :  -0.3600 0.4400 0.1600  plane waves:     299
 k-point 442 :  -0.3200 0.4400 0.1600  plane waves:     293
 k-point 443 :  -0.2800 0.4400 0.1600  plane waves:     294
 k-point 444 :  -0.3600 0.4800 0.1600  plane waves:     295
 k-point 445 :  -0.3200 0.4800 0.1600  plane waves:     296
 k-point 446 :  -0.4000 0.4000 0.2000  plane waves:     301
 k-point 447 :  -0.3600 0.4000 0.2000  plane waves:     297
 k-point 448 :  -0.3200 0.4000 0.2000  plane waves:     298
 k-point 449 :  -0.3600 0.4400 0.2000  plane waves:     297
 k-point 450 :  -0.3200 0.4400 0.2000  plane waves:     297
 k-point 451 :  -0.2800 0.4400 0.2000  plane waves:     295
 k-point 452 :  -0.2400 0.4400 0.2000  plane waves:     294
 k-point 453 :  -0.3200 0.4800 0.2000  plane waves:     298
 k-point 454 :  -0.2800 0.4800 0.2000  plane waves:     292
 k-point 455 :  -0.2800 0.4800 0.2400  plane waves:     298

 maximum and minimum number of plane-waves per node :       311      288

 maximum number of plane-waves:       311
 maximum index in each direction:
   IXMAX=    5   IYMAX=    4   IZMAX=    4
   IXMIN=   -5   IYMIN=   -5   IZMIN=   -4

 serial   3D FFT for wavefunctions
 parallel 3D FFT for charge:
    minimum data exchange during FFTs selected (reduces bandwidth)

 Broyden mixing: mesh for mixing (old mesh)
   NGX =  9   NGY =  9   NGZ =  9
  (NGX  = 28   NGY  = 28   NGZ  = 28)
  gives a total of    729 points

 charge density for first step will be calculated from the start-wavefunctions

 Maximum index for augmentation-charges         3185 (set IRDMAX)

 initial charge from wavefunction
 First call to EWALD:  gamma=   0.697
 Maximum number of real-space cells 3x 3x 3
 Maximum number of reciprocal cells 3x 3x 3

--------------------------------------- Ionic step        1  -------------------------------------------

--------------------------------------- Iteration      1(   1)  ---------------------------------------

 BZINTS: Fermi energy:    8.045275;    3.000000 electrons
         Band energy: 0.107625E+02;  BLOECHL correction:   -0.025514

 eigenvalue-minimisations  :  4700
 total energy-change (2. order) :-0.3745195E+01  (-0.3668358E-06)
 number of electron       3.0000000 magnetization
 augmentation part       -0.0384485 magnetization

 Broyden mixing:
  rms(total) = 0.20986E-03    rms(broyden)= 0.20986E-03
  rms(prec ) = 0.27979E-03
  weight for this iteration     100.00

 Free energy of the ion-electron system (eV)
  alpha Z        PSCENC =        -0.20386447
  Ewald energy   TEWEN  =       -73.55184536
  -Hartree energ DENC   =        -0.10495784
  -exchange      EXHF   =         0.00000000
  -V(xc)+E(xc)   XCENC  =       -26.12730611
  PAW double counting   =       142.24188543     -110.29978615
  entropy T*S    EENTRO =         0.00000000
  eigenvalues    EBANDS =        10.76252494
  atomic energy  EATOM  =        53.53815432
  Solvation  Ediel_sol  =         0.00000000
  free energy    TOTEN  =        -3.74519523 eV

  energy without entropy =       -3.74519523  energy(sigma->0) =       -3.74519523

--------------------------------------- Iteration      1(   2)  ---------------------------------------

[...]

 eigenvalue-minimisations  :  4276
 total energy-change (2. order) :-0.1663187E-06  (-0.1881156E-06)
 number of electron       3.0000000 magnetization
 augmentation part       -0.0384485 magnetization

 Free energy of the ion-electron system (eV)
  alpha Z        PSCENC =        -0.20386447
  Ewald energy   TEWEN  =       -73.55184536
  -Hartree energ DENC   =        -0.10495891
  -exchange      EXHF   =         0.00000000
  -V(xc)+E(xc)   XCENC  =       -26.12732967
  PAW double counting   =       142.15253146     -110.21044729
  entropy T*S    EENTRO =         0.00000000
  eigenvalues    EBANDS =        10.76256452
  atomic energy  EATOM  =        53.53815432
  Solvation  Ediel_sol  =         0.00000000
  free energy    TOTEN  =        -3.74519540 eV

  energy without entropy =       -3.74519540  energy(sigma->0) =       -3.74519540

 average (electrostatic) potential at core
  the test charge radii are     1.0406
  (the norm of the test charge is              1.0000)
       1 -72.6143

 E-fermi :   8.0453     XC(G=0): -10.2021     alpha+bet :-14.8983

 Fermi energy:         8.0452894634

 k-point     1 :       0.0000    0.0000    0.0000
  band No.  band energies     occupation
      1      -3.1289      2.00000
      2      20.6454      0.00000
      3      20.6454      0.00000
      4      20.6454      0.00000
      5      22.1458      0.00000
      6      24.4914      0.00000

[...]

 k-point   455 :      -0.2800    0.4800    0.2400
  band No.  band energies     occupation
      1       6.7346      2.00000
      2       7.3512      2.00000
      3       8.3706      0.00000
      4       9.2581      0.00000
      5      23.3799      0.00000
      6      24.0758      0.00000

 soft charge-density along one line, spin component           1
         0         1         2         3         4         5         6         7         8         9
 total charge-density along one line

------------------------ aborting loop because EDIFF is reached ----------------------------------------

 total charge

# of ion       s       p       d       tot
    1        0.427   0.340   0.000   0.768

  FORCE on cell =-STRESS in cart. coord.  units (eV):
  Direction    XX          YY          ZZ          XY          YZ          ZX
  Alpha Z    -0.20386    -0.20386    -0.20386
  Ewald     -24.51728   -24.51728   -24.51728    -0.00000    -0.00000    -0.00000
  Hartree     0.03498     0.03498     0.03498     0.00000     0.00000     0.00000
  E(xc)      -8.56744    -8.56745    -8.56746     0.00001     0.00000     0.00001
  Local       0.36004     0.36004     0.36004    -0.00000    -0.00000    -0.00000
  n-local    18.23810    19.14929    19.23951     0.70110    -0.24171     0.25093
  augment    -1.02617    -1.02617    -1.02617     0.00000     0.00000     0.00000
  Kinetic    24.76073    13.19212     7.12909    -6.09485     1.28573   -10.89229
  Fock        0.00000     0.00000     0.00000     0.00000     0.00000     0.00000
  Total      -0.01680    -0.01680    -0.01680     0.00000    -0.00000     0.00000
  in kB      -1.63370    -1.63370    -1.63370     0.00000    -0.00000     0.00000

 VOLUME and BASIS-vectors are now :
  energy-cutoff  :      400.00
  volume of cell :       16.48
      direct lattice vectors                 reciprocal lattice vectors
     2.856184718  0.000000000  0.000000000     0.350117411 -0.202140382 -0.142934835
     1.428092359  2.473528523  0.000000000     0.000000000  0.404280763 -0.142934835
     1.428092359  0.824509508  2.332065057     0.000000000  0.000000000  0.428804504

  length of vectors
     2.856184718  2.856184718  2.856184718     0.428804504  0.428804504  0.428804504

 FORCES acting on ions
    electron-ion (+dipol)            ewald-force                    non-local-force                 convergence-correction
   -.266E-15 -.565E-15 0.315E-15   -.246E-15 0.498E-16 0.464E-16   0.996E-23 0.122E-22 0.886E-23   0.148E-17 -.341E-17 0.123E-17
   -.266E-15 -.565E-15 0.315E-15   -.246E-15 0.498E-16 0.464E-16   0.996E-23 0.122E-22 0.886E-23   0.148E-17 -.341E-17 0.123E-17

 POSITION                                       TOTAL-FORCE (eV/Angst)
      0.00000      0.00000      0.00000        -0.000000      0.000000      0.000000
    total drift:                               -0.000000     -0.000000      0.000000

  FREE ENERGIE OF THE ION-ELECTRON SYSTEM (eV)
  free  energy   TOTEN  =        -3.74519540 eV

  energy  without entropy=       -3.74519540  energy(sigma->0) =       -3.74519540

[...]

 writing wavefunctions
|           W    W    AA    RRRRR   N    N  II  N    N   GGGG   !!!           |
|           W    W   A  A   R    R  NN   N  II  NN   N  G    G  !!!           |
|           W    W  A    A  R    R  N N  N  II  N N  N  G       !!!           |
|           W WW W  AAAAAA  RRRRR   N  N N  II  N  N N  G  GGG   !            |
|           WW  WW  A    A  R   R   N   NN  II  N   NN  G    G                |
|           W    W  A    A  R    R  N    N  II  N    N   GGGG   !!!           |
|     Tetrahedron method does not include variations of the Fermi             |
|     occupations, so forces and stress will be inaccurate. We suggest        |
|     using a different smearing scheme ISMEAR = 1 or 2 for metals in         |
|     relaxations.                                                            |

 total charge

# of ion       s       p       d       tot
    1        0.427   0.340   0.000   0.768

 BZINTS: Fermi energy:    8.045289;    3.000000 electrons
         Band energy: 0.107626E+02;  BLOECHL correction:   -0.025514